; QueryHash 9187944070400711984
(set-logic QF_AUFBV )
(declare-fun arg00 () (Array (_ BitVec 32) (_ BitVec 8) ) )
(assert (=  false (=  (_ bv0 8) (select  arg00 (_ bv5 32) ) ) ) )
(check-sat)
(exit)

; Assignments 1425 ms
; { "arg00": [0, 0, 0, 0, 1, 0, 0, 0] }
; { "arg00": [0, 0, 0, 0, 61, 0, 0, 0] }
; { "arg00": [0, 0, 0, 1, 0, 0, 0, 0] }
; { "arg00": [0, 0, 0, 61, 0, 0, 0, 0] }
; { "arg00": [0, 0, 1, 0, 0, 0, 0, 0] }
; { "arg00": [0, 0, 110, 0, 0, 0, 0, 0] }
; { "arg00": [0, 0, 61, 0, 0, 0, 0, 0] }
; { "arg00": [0, 1, 0, 0, 0, 0, 0, 0] }
; { "arg00": [0, 101, 0, 0, 0, 0, 0, 0] }
; { "arg00": [0, 110, 0, 0, 0, 0, 0, 0] }
; { "arg00": [0, 115, 0, 0, 0, 0, 0, 0] }
; { "arg00": [0, 116, 0, 0, 0, 0, 0, 0] }
; { "arg00": [0, 45, 0, 0, 0, 0, 0, 0] }
; { "arg00": [0, 98, 0, 0, 0, 0, 0, 0] }
; { "arg00": [45, 0, 0, 0, 0, 0, 0, 0] }
; { "model_version": [1, 0, 0, 0] }
; { "n_args": [1, 0, 0, 0] }
; { "n_args": [2, 0, 0, 0] }
; { "n_args": [255, 255, 255, 127] }
; { "n_args": [3, 0, 0, 0] }
; { "n_args": [4, 0, 0, 0] }
; { "n_args": [5, 0, 0, 0] }
